qbf_easy_train/easy_4404_SAT.qdimacs
p cnf 19 41
a 16 7 0
e 1 2 3 4 5 6 8 9 10 11 12 13 14 15 17 18 19 0
3 -1 0
3 2 0
1 -2 -3 0
4 5 -6 0
-4 -5 -6 0
4 -5 6 0
-4 5 6 0
-7 3 0
-7 6 0
-3 -6 7 0
9 -10 0
-9 -10 0
-11 8 0
-11 -10 0
-8 10 11 0
7 -11 -12 0
-7 11 -12 0
7 11 12 0
-7 -11 12 0
-15 14 0
-15 -4 0
-14 4 15 0
-16 13 0
-16 15 0
-13 -15 16 0
-12 -16 -17 0
12 16 -17 0
-12 16 17 0
12 -16 17 0
-18 8 0
-18 -5 0
-8 5 18 0
-17 -18 -19 0
17 18 -19 0
-17 18 19 0
17 -18 19 0
2 15 -10 -13 18 9 0
5 6 2 3 0
17 -19 -1 0
-11 -16 19 0
19 0
