sat_easy_train/easy_4404_SAT.dimacs
p cnf 89 284
4 3 0
4 2 0
-3 -2 -4 0
2 4 -5 0
-2 -4 -5 0
2 -4 5 0
-2 4 5 0
-6 -1 0
-6 -5 0
1 5 6 0
9 1 0
9 8 0
-1 -8 -9 0
11 -9 0
11 10 0
9 -10 -11 0
-12 -2 0
-12 11 0
2 -11 12 0
-13 -7 0
-13 -12 0
7 12 13 0
-6 13 -14 0
6 -13 -14 0
-6 -13 14 0
6 13 14 0
16 -2 0
16 -15 0
2 15 -16 0
-17 16 0
-17 -16 0
18 7 0
18 -12 0
-7 12 -18 0
17 -18 -19 0
-17 18 -19 0
17 18 19 0
-17 -18 19 0
20 -14 0
20 -19 0
14 19 -20 0
22 3 0
22 -21 0
-3 21 -22 0
24 -8 0
24 -23 0
8 23 -24 0
26 -25 0
26 1 0
25 -1 -26 0
24 26 -27 0
-24 -26 -27 0
24 -26 27 0
-24 26 27 0
22 -27 -28 0
-22 27 -28 0
22 27 28 0
-22 -27 28 0
20 28 -29 0
-20 -28 -29 0
20 -28 29 0
-20 28 29 0
30 -4 0
30 8 0
4 -8 -30 0
25 -30 -31 0
-25 30 -31 0
25 30 31 0
-25 -30 31 0
-25 -33 -34 0
25 33 -34 0
-25 33 34 0
25 -33 34 0
-35 -32 0
-35 -34 0
32 34 35 0
31 35 -36 0
-31 -35 -36 0
31 -35 36 0
-31 35 36 0
37 4 0
37 -10 0
-4 10 -37 0
-38 -21 0
-38 -37 0
21 37 38 0
39 -22 0
39 32 0
22 -32 -39 0
-40 -38 0
-40 39 0
38 -39 40 0
-36 40 -41 0
36 -40 -41 0
-36 -40 41 0
36 40 41 0
5 12 -43 0
-5 -12 -43 0
5 -12 43 0
-5 12 43 0
44 42 0
44 43 0
-42 -43 -44 0
45 -11 0
45 8 0
11 -8 -45 0
-46 44 0
-46 -45 0
-44 45 46 0
-47 -41 0
-47 46 0
41 -46 47 0
-29 47 -48 0
29 -47 -48 0
-29 -47 48 0
29 47 48 0
7 -49 -50 0
-7 49 -50 0
7 49 50 0
-7 -49 50 0
-51 34 0
-51 -30 0
-34 30 51 0
16 -32 -52 0
-16 32 -52 0
16 32 52 0
-16 -32 52 0
-16 -52 -53 0
16 52 -53 0
-16 52 53 0
16 -52 53 0
31 53 -54 0
-31 -53 -54 0
31 -53 54 0
-31 53 54 0
55 51 0
55 -54 0
-51 54 -55 0
-57 -56 0
-57 8 0
56 -8 57 0
57 -10 -58 0
-57 10 -58 0
57 10 58 0
-57 -10 58 0
55 58 -59 0
-55 -58 -59 0
55 -58 59 0
-55 58 59 0
-50 -59 -60 0
50 59 -60 0
-50 59 60 0
50 -59 60 0
62 -61 0
62 15 0
61 -15 -62 0
63 -62 0
63 12 0
62 -12 -63 0
-64 -32 0
-64 8 0
32 -8 64 0
65 -56 0
65 -64 0
56 64 -65 0
-66 -5 0
-66 -32 0
5 32 66 0
67 65 0
67 -66 0
-65 66 -67 0
-63 67 -68 0
63 -67 -68 0
-63 -67 68 0
63 67 68 0
69 -26 0
69 -57 0
26 57 -69 0
-68 69 -70 0
68 -69 -70 0
-68 -69 70 0
68 69 70 0
71 -4 0
71 -4 0
4 -71 0
-72 71 0
-72 -33 0
-71 33 72 0
35 -1 -73 0
-35 1 -73 0
35 1 73 0
-35 -1 73 0
74 -72 0
74 -73 0
72 73 -74 0
-75 -70 0
-75 -74 0
70 74 75 0
76 -62 0
76 42 0
62 -42 -76 0
77 63 0
77 -33 0
-63 33 -77 0
-78 76 0
-78 -77 0
-76 77 78 0
-26 66 -79 0
26 -66 -79 0
-26 -66 79 0
26 66 79 0
80 78 0
80 -79 0
-78 79 -80 0
-75 -80 -81 0
75 80 -81 0
-75 80 81 0
75 -80 81 0
-82 33 0
-82 -16 0
-33 16 82 0
82 -23 -83 0
-82 23 -83 0
82 23 83 0
-82 -23 83 0
-83 11 -84 0
83 -11 -84 0
-83 -11 84 0
83 11 84 0
10 84 -85 0
-10 -84 -85 0
10 -84 85 0
-10 84 85 0
86 -21 0
86 85 0
21 -85 -86 0
87 81 0
87 86 0
-81 -86 -87 0
-88 60 0
-88 -87 0
-60 87 88 0
48 88 -89 0
-48 -88 -89 0
48 -88 89 0
-48 88 89 0
-13 37 6 0
78 47 -28 0
-76 17 -62 0
2 -70 -56 0
4 -61 27 0
80 -51 -62 70 -36 -73 0
30 -75 0
-62 23 12 -43 13 4 0
64 -25 0
78 48 0
-76 51 -37 -89 -44 0
-47 -45 -64 25 -74 0
-9 62 -74 -36 0
77 -6 0
12 74 0
-40 44 69 76 -70 0
-82 15 62 -75 79 9 0
-39 -71 26 68 0
10 -40 -61 0
-51 -39 -6 58 0
16 50 19 -87 10 -37 0
-14 16 -59 -67 0
23 87 67 -8 38 -88 0
16 -11 -37 13 10 0
22 -26 -54 16 -23 -87 0
-67 -24 47 76 0
-66 -46 0
37 20 53 0
45 -15 -46 -81 76 44 0
69 -34 0
-25 -29 0
58 -27 -46 -57 -84 0
-76 -83 -24 44 -34 0
-61 -40 0
67 57 30 73 -56 21 0
36 37 75 0
-37 -42 20 0
89 0
